126 127 128 129 130 137 138 139 140 141 151 150 149 152 148 147 146 145 144 143 142 136 135 134 133 132 131 113 161 160 155 156 159 158 157 153 154 165 164 166 167 163 162 168 169 170 171 175 172 110 111 112 114 115 116 106 105 104 103 547 546 545 544 543 541 542 107 109 108 173 174 176 177 178 180 181 179 182 183 185 184 194 195 196 197 198 199 200 201 202 204 203 208 207 206 205 209 210 211 212 213 214 215 216 217 223 224 222 221 220 218 219 193 192 191 190 226 225 231 230 229 228 189 227 186 188 187 540 538 539 537 536 484 485 483 481 482 475 476 480 479 477 478 548 549 560 561 562 563 564 565 566 567 568 569 570 474 473 472 471 495 494 524 525 526 527 528 529 490 491 492 493 486 487 535 534 488 533 532 489 531 530 233 232 234 235 236 237 240 239 238 246 247 245 244 243 242 241 300 257 256 248 249 250 251 252 254 253 255 261 260 259 258 262 263 264 266 265 299 298 267 271 268 270 269 272 273 274 275 292 291 293 294 295 296 297 321 320 319 317 318 305 306 304 303 301 302 508 507 506 509 510 511 512 513 514 515 516 517 522 523 521 520 518 519 497 496 470 469 468 467 466 465 464 463 462 461 452 453 499 500 501 498 502 503 504 505 307 308 309 310 311 451 312 313 316 314 315 374 375 376 377 378 379 380 381 390 392 391 393 394 395 396 371 372 373 322 323 324 325 326 327 328 329 366 342 330 331 332 333 288 289 290 276 277 278 279 282 281 280 287 286 285 284 283 334 335 336 337 338 339 340 341 343 344 345 346 347 350 349 348 362 363 364 365 367 368 369 370 398 397 399 400 404 405 406 407 408 409 385 387 388 389 386 382 383 384 410 411 412 356 402 403 401 360 361 359 358 357 355 354 353 352 351 415 416 414 413 417 418 419 420 421 422 423 424 425 426 427 428 429 431 430 432 433 434 435 436 437 438 443 444 445 446 447 448 449 450 441 440 442 439 454 455 456 457 458 459 460 571 572 573 0 1 2 3 4 5 6 7 8 9 10 11 14 15 16 17 18 19 20 13 12 23 21 24 25 26 27 28 29 22 31 30 32 33 34 35 36 37 38 40 41 39 42 43 49 48 47 44 45 46 555 556 557 558 559 550 551 101 102 100 99 552 553 554 98 96 95 97 94 93 92 91 85 86 84 51 50 52 54 53 55 56 83 82 57 58 59 60 61 63 64 62 79 80 81 87 90 89 88 78 77 76 75 74 73 119 118 120 121 117 122 123 71 72 65 66 67 68 70 69 124 125